c Generated map
c Size: 9 * 9, weights in range: 1 to 10, walls: True, with ratio 0.05
c dim 7 of 7
c
p sp 81 129
c graph contains 81 nodes and 129 arcs
c
a 1 10 8
a 10 1 8
a 1 2 9
a 2 1 9
a 2 11 2
a 11 2 2
a 2 3 2
a 3 2 2
a 3 12 2
a 12 3 2
a 3 4 4
a 4 3 4
a 4 13 2
a 13 4 2
a 4 5 5
a 5 4 5
a 5 6 2
a 6 5 2
a 6 15 2
a 15 6 2
a 6 7 8
a 7 6 8
a 7 16 7
a 16 7 7
a 7 8 2
a 8 7 2
a 8 17 2
a 17 8 2
a 8 9 7
a 9 8 7
a 9 18 4
a 18 9 4
a 10 19 4
a 19 10 4
a 10 11 3
a 11 10 3
a 11 20 9
a 20 11 9
a 11 12 5
a 12 11 5
a 12 21 2
a 21 12 2
a 12 13 2
a 13 12 2
a 13 22 1
a 22 13 1
a 15 24 10
a 24 15 10
a 15 16 6
a 16 15 6
a 16 25 3
a 25 16 3
a 16 17 6
a 17 16 6
a 17 26 1
a 26 17 1
a 17 18 10
a 18 17 10
a 18 27 6
a 27 18 6
a 19 28 3
a 28 19 3
a 19 20 3
a 20 19 3
a 20 29 4
a 29 20 4
a 20 21 7
a 21 20 7
a 21 30 7
a 30 21 7
a 21 22 7
a 22 21 7
a 22 31 5
a 31 22 5
a 22 23 5
a 23 22 5
a 23 24 10
a 24 23 10
a 24 33 5
a 33 24 5
a 24 25 8
a 25 24 8
a 25 34 5
a 34 25 5
a 25 26 4
a 26 25 4
a 26 35 4
a 35 26 4
a 26 27 6
a 27 26 6
a 27 36 9
a 36 27 9
a 28 29 2
a 29 28 2
a 29 38 2
a 38 29 2
a 29 30 2
a 30 29 2
a 30 39 3
a 39 30 3
a 30 31 5
a 31 30 5
a 31 40 6
a 40 31 6
a 33 42 9
a 42 33 9
a 33 34 7
a 34 33 7
a 34 43 1
a 43 34 1
a 34 35 3
a 35 34 3
a 35 44 10
a 44 35 10
a 35 36 2
a 36 35 2
a 36 45 8
a 45 36 8
a 38 47 2
a 47 38 2
a 38 39 1
a 39 38 1
a 39 48 10
a 48 39 10
a 39 40 4
a 40 39 4
a 40 49 6
a 49 40 6
a 40 41 10
a 41 40 10
a 41 50 2
a 50 41 2
a 41 42 2
a 42 41 2
a 42 51 8
a 51 42 8
a 42 43 6
a 43 42 6
a 43 52 10
a 52 43 10
a 43 44 6
a 44 43 6
a 44 53 5
a 53 44 5
a 44 45 4
a 45 44 4
a 45 54 10
a 54 45 10
a 46 55 5
a 55 46 5
a 46 47 3
a 47 46 3
a 47 56 3
a 56 47 3
a 47 48 5
a 48 47 5
a 48 57 6
a 57 48 6
a 48 49 8
a 49 48 8
a 49 58 10
a 58 49 10
a 49 50 5
a 50 49 5
a 50 59 2
a 59 50 2
a 50 51 2
a 51 50 2
a 51 60 5
a 60 51 5
a 51 52 5
a 52 51 5
a 52 61 8
a 61 52 8
a 52 53 7
a 53 52 7
a 53 62 7
a 62 53 7
a 53 54 9
a 54 53 9
a 54 63 9
a 63 54 9
a 55 64 9
a 64 55 9
a 55 56 10
a 56 55 10
a 56 65 6
a 65 56 6
a 56 57 2
a 57 56 2
a 57 66 5
a 66 57 5
a 57 58 2
a 58 57 2
a 58 59 6
a 59 58 6
a 59 68 4
a 68 59 4
a 59 60 9
a 60 59 9
a 60 69 5
a 69 60 5
a 60 61 1
a 61 60 1
a 61 70 3
a 70 61 3
a 61 62 1
a 62 61 1
a 62 71 9
a 71 62 9
a 62 63 3
a 63 62 3
a 63 72 10
a 72 63 10
a 64 73 1
a 73 64 1
a 64 65 7
a 65 64 7
a 65 74 3
a 74 65 3
a 65 66 7
a 66 65 7
a 66 75 9
a 75 66 9
a 68 77 3
a 77 68 3
a 68 69 10
a 69 68 10
a 69 78 5
a 78 69 5
a 69 70 4
a 70 69 4
a 70 79 5
a 79 70 5
a 70 71 4
a 71 70 4
a 71 80 1
a 80 71 1
a 71 72 9
a 72 71 9
a 72 81 2
a 81 72 2
a 73 74 9
a 74 73 9
a 74 75 3
a 75 74 3
a 75 76 3
a 76 75 3
a 76 77 4
a 77 76 4
a 77 78 4
a 78 77 4
a 78 79 5
a 79 78 5
a 79 80 6
a 80 79 6
a 80 81 5
a 81 80 5
